c File: instances/30_0.35_2.col
c
c Description: Random graph of size 30 vertices and P(0.35) of edges between any two vertices.
p col 30 435
e 1 3
e 1 7
e 1 9
e 1 11
e 1 12
e 1 14
e 1 15
e 1 20
e 1 21
e 1 26
e 1 28
e 1 30
e 2 6
e 2 11
e 2 15
e 2 17
e 2 19
e 2 25
e 3 8
e 3 10
e 3 12
e 3 13
e 3 14
e 3 17
e 3 19
e 3 20
e 3 24
e 3 25
e 4 5
e 4 6
e 4 8
e 4 11
e 4 12
e 4 15
e 4 16
e 4 19
e 4 21
e 4 22
e 4 23
e 4 25
e 4 27
e 5 8
e 5 11
e 5 18
e 5 20
e 5 24
e 5 29
e 5 30
e 6 7
e 6 10
e 6 11
e 6 15
e 6 21
e 6 22
e 6 23
e 6 24
e 6 25
e 6 28
e 6 29
e 7 8
e 7 9
e 7 14
e 7 16
e 7 19
e 7 20
e 7 21
e 7 24
e 7 26
e 7 27
e 7 28
e 7 30
e 8 10
e 8 15
e 8 18
e 8 20
e 8 22
e 8 24
e 8 25
e 8 26
e 8 27
e 9 13
e 9 14
e 9 19
e 9 20
e 9 21
e 9 25
e 9 26
e 10 15
e 10 17
e 10 21
e 10 23
e 10 24
e 10 25
e 10 26
e 10 27
e 10 28
e 11 12
e 11 15
e 11 17
e 11 18
e 11 24
e 11 26
e 11 27
e 11 28
e 11 30
e 12 19
e 12 20
e 12 22
e 12 23
e 13 15
e 13 17
e 13 18
e 13 20
e 13 21
e 13 22
e 13 23
e 13 24
e 13 29
e 14 15
e 14 18
e 14 19
e 14 20
e 14 21
e 14 24
e 14 27
e 14 29
e 14 30
e 15 23
e 15 26
e 15 28
e 16 23
e 16 25
e 16 26
e 16 28
e 16 30
e 17 22
e 17 26
e 17 28
e 18 20
e 18 25
e 18 26
e 19 21
e 19 23
e 19 27
e 19 28
e 20 21
e 20 27
e 21 23
e 21 26
e 21 27
e 21 28
e 21 29
e 22 23
e 22 26
e 22 27
e 22 30
e 23 24
e 23 30
e 24 28
e 26 30
e 28 29
e 28 30
e 29 30